(set-logic QF_NRA)
(declare-fun a () Real)
(declare-fun b () Real)
(declare-fun c () Real)
(declare-fun x () Real)
(declare-fun y () Real)
(assert (and (= (- (+ (* x x) (* y y)) 1) 0) (= (- (+ (* (* b b) (* (- x c) (- x c))) (* (* a a) (* y y))) (* (*  a a) (* b b))) 0) (> a 0) (< a 1) (> b 0) (< b 1) (>= c 0) (< c 1)))
(eliminate-quantifiers (exists y x))
(exit)
